84 173 134 132 70 37 21 136 16 188 168 169 128 198 194 100 35 115 86 117 11 81 146 14 189 15 153 120 170 6 34 29 150 42 164 5 36 106 167 145 154 116 193 93 180 161 190 110 158 41 59 76 88 171 138 97 179 111 19 140 195 9 53 107 77 52 137 109 79 87 119 89 104 199 178 66 121 163 55 56 196 155 152 166 125 122 30 192 102 57 148 80 60 156 33 82 143 177 186 7 92 18 101 94 160 127 28 20 182 184 197 0 139 31 74 40 144 187 2 112 54 1 105 78 48 108 85 44 68 46 135 151 4 159 22 175 49 96 73 99 172 83 12 124 62 123 126 51 75 24 113 47 3 157 25 181 129 174 69 72 13 142 95 65 185 118 39 26 130 50 183 98 131 149 8 32 67 90 43 64 38 103 23 133 162 61 10 71 45 191 58 114 17 147 176 91 63 165 141 27